Version identifier: 22.1.1.0 | 2022-11-28 | 9160aff4d
CPXPARAM_ClockType                               1
CPXPARAM_Read_DataCheck                          1
CPXPARAM_Threads                                 1
CPXPARAM_Simplex_Tolerances_Optimality           1.0000000000000001e-09
CPXPARAM_TimeLimit                               7200
CPXPARAM_MIP_Tolerances_AbsMIPGap                0
CPXPARAM_MIP_Tolerances_MIPGap                   0
CPXPARAM_MIP_Tolerances_Integrality              0
Tried aggregator 1 time.
MIQP Presolve eliminated 4867 rows and 9 columns.
MIQP Presolve modified 2468 coefficients.
Reduced MIQP has 34294 rows, 11991 columns, and 105366 nonzeros.
Reduced MIQP has 11391 binaries, 600 generals, 0 SOSs, and 0 indicators.
Reduced MIQP objective Q matrix has 600 nonzeros.
Presolve time = 0.10 sec. (70.71 ticks)
Probing time = 0.01 sec. (4.46 ticks)
Tried aggregator 1 time.
MIQP Presolve eliminated 2000 rows and 0 columns.
Reduced MIQP has 32294 rows, 11991 columns, and 99366 nonzeros.
Reduced MIQP has 11391 binaries, 600 generals, 0 SOSs, and 0 indicators.
Reduced MIQP objective Q matrix has 600 nonzeros.
Presolve time = 0.11 sec. (63.87 ticks)
Classifier predicts products in MIQP should be linearized.
Probing time = 0.02 sec. (4.28 ticks)
Clique table members: 16473.
MIP emphasis: balance optimality and feasibility.
MIP search method: dynamic search.
Parallel mode: none, using 1 thread.
Root relaxation solution time = 65.75 sec. (134732.23 ticks)

        Nodes                                         Cuts/
   Node  Left     Objective  IInf  Best Integer    Best Bound    ItCnt     Gap

      0     0    13333.3333  6632                  13333.3333        6         
      0     0        cutoff                                      19843         
Elapsed time = 433.63 sec. (317215.87 ticks, tree = 0.01 MB, solutions = 0)

Clique cuts applied:  40
Implied bound cuts applied:  4
Zero-half cuts applied:  1435

Root node processing (before b&c):
  Real time             =  433.63 sec. (317215.90 ticks)
Sequential b&c:
  Real time             =    0.00 sec. (0.00 ticks)
                          ------------
Total (root+branch&cut) =  433.63 sec. (317215.90 ticks)
Solution is infeasible.

---------------------
@@@ MIP_infeasible
Traceback (most recent call last):
  File "/scratch/scherif/DiverseSAT-journal_sup/DiverseSAT_Supplementary_Experiments/experiment-1/cplex/jobs/../solvers/CPLEX-QP-SE.py", line 118, in <module>
    print(f">>> Benchmark {os.path.basename(cnf_file)} k {k} OPT {int(prob.solution.get_objective_value())}"
  File "/users/scherif/.local/lib/python3.9/site-packages/cplex/_internal/_subinterfaces.py", line 7211, in get_objective_value
    return CPX_PROC.getobjval(self._env._e, self._cplex._lp)
  File "/users/scherif/.local/lib/python3.9/site-packages/cplex/_internal/_procedural.py", line 2055, in getobjval
    check_status(env, status)
  File "/users/scherif/.local/lib/python3.9/site-packages/cplex/_internal/_procedural.py", line 249, in __call__
    raise CplexSolverError(error_string, env, status)
cplex.exceptions.errors.CplexSolverError: CPLEX Error  1217: No solution exists.
